(set-logic ALL)
(declare-const BAV1 Bool)
(declare-const BAV2 Bool)
(declare-const BAV3 Bool)
(declare-const BAV4 Bool)
(declare-const GEN3 Real)
(declare-const GEN2 Int)
(declare-const GEN1 Real)
(declare-fun a () Real)
(declare-fun b () Real)
(declare-fun c () Real)
(declare-fun d () Real)
(declare-fun e () Real)
(assert (not (exists ((g Real)) (= (< GEN1 (* b d)) (distinct (* (to_real GEN2) a c) GEN3)))))
(assert (= a (* c e)))
(assert (= BAV1 (= (< GEN1 (* b d)) (distinct (* (to_real GEN2) a c) GEN3))))
(assert (= BAV2 (< GEN1 (* b d))))
(assert (= BAV3 (distinct (* (to_real GEN2) a c) GEN3)))
(assert (= BAV4 (= a (* c e))))
(check-sat)
(get-model)